1000
40
16 136
29 42
44 20
76 293
30 311
29 13
10 372
81 40
30 44
5 450
43 46
66 131
36 352
63 119
70 77
93 488
74 305
61 134
61 423
53 107
13 59
85 230
46 226
53 249
94 37
87 344
83 60
8 216
94 183
14 137
25 107
69 239
18 226
24 152
60 137
10 236
71 60
7 343
70 438
2 57
